WARNING: for repeatability, setting FPU to use double precision
============================[ Problem Statistics ]=============================
|                                                                             |
|  Number of variables:            50                                         |
|  Number of clauses:             218                                         |
|  Parse time:                   0.00 s                                       |
|                                                                             |
============================[ Search Statistics ]==============================
| Conflicts |          ORIGINAL         |          LEARNT          | Progress |
|           |    Vars  Clauses Literals |    Limit  Clauses Lit/Cl |          |
===============================================================================
===============================================================================
restarts              : 1
conflicts             : 54             (36486 /sec)
decisions             : 61             (0.00 % random) (41216 /sec)
propagations          : 760            (513514 /sec)
conflict literals     : 187            (22.41 % deleted)
Memory used           : 20.00 MB
CPU time              : 0.00148 s

UNSATISFIABLE
